p edge 100 483
e 1 2 1
e 1 100 1
e 1 3 1
e 1 99 1
e 1 4 1
e 1 98 1
e 1 58 1
e 1 68 1
e 1 29 1
e 1 11 1
e 1 26 1
e 1 15 1
e 2 3 1
e 2 4 1
e 2 100 1
e 2 5 1
e 2 99 1
e 2 56 1
e 2 42 1
e 2 30 1
e 2 50 1
e 2 39 1
e 2 41 1
e 3 4 1
e 3 5 1
e 3 6 1
e 3 100 1
e 3 67 1
e 3 21 1
e 3 10 1
e 3 36 1
e 4 5 1
e 4 6 1
e 4 7 1
e 4 61 1
e 4 55 1
e 4 97 1
e 5 6 1
e 5 7 1
e 5 8 1
e 5 24 1
e 5 53 1
e 5 62 1
e 6 7 1
e 6 8 1
e 6 9 1
e 6 74 1
e 6 68 1
e 6 71 1
e 6 79 1
e 6 97 1
e 7 8 1
e 7 9 1
e 7 10 1
e 7 46 1
e 7 68 1
e 8 9 1
e 8 10 1
e 8 11 1
e 8 25 1
e 8 87 1
e 9 10 1
e 9 11 1
e 9 12 1
e 9 81 1
e 9 76 1
e 10 11 1
e 10 12 1
e 10 13 1
e 10 94 1
e 11 12 1
e 11 13 1
e 11 14 1
e 11 16 1
e 11 42 1
e 11 54 1
e 11 60 1
e 11 85 1
e 11 86 1
e 12 13 1
e 12 14 1
e 12 15 1
e 12 93 1
e 12 41 1
e 12 74 1
e 13 14 1
e 13 15 1
e 13 16 1
e 13 86 1
e 13 53 1
e 13 79 1
e 14 15 1
e 14 16 1
e 14 17 1
e 14 40 1
e 14 18 1
e 14 78 1
e 15 16 1
e 15 17 1
e 15 18 1
e 15 24 1
e 15 73 1
e 15 67 1
e 16 17 1
e 16 18 1
e 16 19 1
e 16 24 1
e 16 59 1
e 16 94 1
e 17 18 1
e 17 19 1
e 17 20 1
e 17 87 1
e 17 27 1
e 17 29 1
e 17 66 1
e 17 79 1
e 18 19 1
e 18 20 1
e 18 21 1
e 18 41 1
e 19 20 1
e 19 21 1
e 19 22 1
e 19 42 1
e 19 56 1
e 19 74 1
e 20 21 1
e 20 22 1
e 20 23 1
e 20 43 1
e 20 48 1
e 20 33 1
e 20 65 1
e 21 22 1
e 21 23 1
e 21 24 1
e 21 63 1
e 21 55 1
e 22 23 1
e 22 24 1
e 22 25 1
e 22 59 1
e 22 97 1
e 22 50 1
e 22 79 1
e 23 24 1
e 23 25 1
e 23 26 1
e 23 44 1
e 23 81 1
e 23 85 1
e 24 25 1
e 24 26 1
e 24 27 1
e 24 75 1
e 24 89 1
e 24 55 1
e 25 26 1
e 25 27 1
e 25 28 1
e 25 65 1
e 25 83 1
e 25 41 1
e 25 92 1
e 26 27 1
e 26 28 1
e 26 29 1
e 26 64 1
e 26 88 1
e 26 86 1
e 27 28 1
e 27 29 1
e 27 30 1
e 27 70 1
e 28 29 1
e 28 30 1
e 28 31 1
e 28 47 1
e 28 56 1
e 28 99 1
e 28 49 1
e 29 30 1
e 29 31 1
e 29 32 1
e 29 40 1
e 29 59 1
e 30 31 1
e 30 32 1
e 30 33 1
e 30 67 1
e 30 95 1
e 31 32 1
e 31 33 1
e 31 34 1
e 31 89 1
e 31 49 1
e 31 60 1
e 32 33 1
e 32 34 1
e 32 35 1
e 32 38 1
e 32 61 1
e 32 72 1
e 32 82 1
e 33 34 1
e 33 35 1
e 33 36 1
e 33 80 1
e 34 35 1
e 34 36 1
e 34 37 1
e 34 69 1
e 34 76 1
e 34 82 1
e 35 36 1
e 35 37 1
e 35 38 1
e 36 37 1
e 36 38 1
e 36 39 1
e 36 46 1
e 36 80 1
e 36 75 1
e 37 38 1
e 37 39 1
e 37 40 1
e 37 50 1
e 37 68 1
e 38 39 1
e 38 40 1
e 38 41 1
e 39 40 1
e 39 41 1
e 39 42 1
e 39 55 1
e 39 96 1
e 40 41 1
e 40 42 1
e 40 43 1
e 40 59 1
e 40 85 1
e 40 88 1
e 40 44 1
e 41 42 1
e 41 43 1
e 41 44 1
e 41 84 1
e 42 43 1
e 42 44 1
e 42 45 1
e 42 87 1
e 43 44 1
e 43 45 1
e 43 46 1
e 43 56 1
e 43 86 1
e 43 85 1
e 43 84 1
e 44 45 1
e 44 46 1
e 44 47 1
e 44 90 1
e 44 81 1
e 45 46 1
e 45 47 1
e 45 48 1
e 45 99 1
e 45 78 1
e 45 86 1
e 46 47 1
e 46 48 1
e 46 49 1
e 46 99 1
e 46 56 1
e 46 62 1
e 47 48 1
e 47 49 1
e 47 50 1
e 47 82 1
e 47 53 1
e 48 49 1
e 48 50 1
e 48 51 1
e 48 56 1
e 48 84 1
e 49 50 1
e 49 51 1
e 49 52 1
e 49 58 1
e 50 51 1
e 50 52 1
e 50 53 1
e 50 63 1
e 50 65 1
e 51 52 1
e 51 53 1
e 51 54 1
e 51 69 1
e 51 83 1
e 52 53 1
e 52 54 1
e 52 55 1
e 52 94 1
e 53 54 1
e 53 55 1
e 53 56 1
e 53 80 1
e 53 79 1
e 54 55 1
e 54 56 1
e 54 57 1
e 54 81 1
e 55 56 1
e 55 57 1
e 55 58 1
e 55 72 1
e 55 75 1
e 56 57 1
e 56 58 1
e 56 59 1
e 56 74 1
e 56 99 1
e 56 66 1
e 56 96 1
e 57 58 1
e 57 59 1
e 57 60 1
e 57 70 1
e 58 59 1
e 58 60 1
e 58 61 1
e 58 68 1
e 59 60 1
e 59 61 1
e 59 62 1
e 59 72 1
e 59 77 1
e 60 61 1
e 60 62 1
e 60 63 1
e 60 69 1
e 60 73 1
e 60 94 1
e 61 62 1
e 61 63 1
e 61 64 1
e 61 78 1
e 61 80 1
e 61 69 1
e 61 70 1
e 61 89 1
e 62 63 1
e 62 64 1
e 62 65 1
e 63 64 1
e 63 65 1
e 63 66 1
e 63 67 1
e 63 90 1
e 64 65 1
e 64 66 1
e 64 67 1
e 64 99 1
e 64 77 1
e 65 66 1
e 65 67 1
e 65 68 1
e 65 81 1
e 66 67 1
e 66 68 1
e 66 69 1
e 66 93 1
e 67 68 1
e 67 69 1
e 67 70 1
e 67 72 1
e 67 93 1
e 68 69 1
e 68 70 1
e 68 71 1
e 68 92 1
e 69 70 1
e 69 71 1
e 69 72 1
e 70 71 1
e 70 72 1
e 70 73 1
e 70 98 1
e 71 72 1
e 71 73 1
e 71 74 1
e 72 73 1
e 72 74 1
e 72 75 1
e 73 74 1
e 73 75 1
e 73 76 1
e 73 95 1
e 74 75 1
e 74 76 1
e 74 77 1
e 75 76 1
e 75 77 1
e 75 78 1
e 75 88 1
e 75 91 1
e 76 77 1
e 76 78 1
e 76 79 1
e 77 78 1
e 77 79 1
e 77 80 1
e 78 79 1
e 78 80 1
e 78 81 1
e 79 80 1
e 79 81 1
e 79 82 1
e 80 81 1
e 80 82 1
e 80 83 1
e 80 98 1
e 80 90 1
e 81 82 1
e 81 83 1
e 81 84 1
e 81 93 1
e 82 83 1
e 82 84 1
e 82 85 1
e 82 90 1
e 83 84 1
e 83 85 1
e 83 86 1
e 84 85 1
e 84 86 1
e 84 87 1
e 85 86 1
e 85 87 1
e 85 88 1
e 85 93 1
e 86 87 1
e 86 88 1
e 86 89 1
e 87 88 1
e 87 89 1
e 87 90 1
e 87 96 1
e 88 89 1
e 88 90 1
e 88 91 1
e 89 90 1
e 89 91 1
e 89 92 1
e 90 91 1
e 90 92 1
e 90 93 1
e 91 92 1
e 91 93 1
e 91 94 1
e 92 93 1
e 92 94 1
e 92 95 1
e 92 99 1
e 93 94 1
e 93 95 1
e 93 96 1
e 94 95 1
e 94 96 1
e 94 97 1
e 95 96 1
e 95 97 1
e 95 98 1
e 96 97 1
e 96 98 1
e 96 99 1
e 97 98 1
e 97 99 1
e 97 100 1
e 98 99 1
e 98 100 1
e 99 100 1